
******************************************************************************
This program contains Ipopt, a library for large-scale nonlinear optimization.
 Ipopt is released as open source code under the Eclipse Public License (EPL).
         For more information visit http://projects.coin-or.org/Ipopt
******************************************************************************

This is Ipopt version 3.12.6, running with linear solver ma57.

Number of nonzeros in equality constraint Jacobian...:        0
Number of nonzeros in inequality constraint Jacobian.:        9
Number of nonzeros in Lagrangian Hessian.............:        3

Total number of variables............................:        3
                     variables with only lower bounds:        0
                variables with lower and upper bounds:        0
                     variables with only upper bounds:        0
Total number of equality constraints.................:        0
Total number of inequality constraints...............:        3
        inequality constraints with only lower bounds:        3
   inequality constraints with lower and upper bounds:        0
        inequality constraints with only upper bounds:        0

iter    objective    inf_pr   inf_du lg(mu)  ||d||  lg(rg) alpha_du alpha_pr  ls
   0  2.0000000e+00 1.80e+01 9.90e-01  -1.0 0.00e+00    -  0.00e+00 0.00e+00   0
   1  1.5033485e+00 5.27e+00 6.39e-01  -1.0 7.84e-01    -  1.00e+00 1.00e+00h  1
   2  1.6013772e+00 1.14e+00 4.26e-01  -1.0 1.77e+00    -  1.00e+00 8.41e-01h  1
   3  2.0358992e+00 3.14e-01 1.60e-01  -1.0 1.22e+00    -  1.00e+00 8.99e-01h  1
   4  2.0565701e+00 0.00e+00 4.58e-02  -1.7 1.74e-01    -  1.00e+00 1.00e+00h  1
   5  2.0089020e+00 0.00e+00 8.23e-04  -2.5 1.10e-01    -  1.00e+00 1.00e+00h  1
   6  2.0005549e+00 0.00e+00 4.88e-05  -3.8 3.06e-02    -  1.00e+00 1.00e+00h  1
   7  2.0000061e+00 0.00e+00 2.76e-07  -5.7 2.33e-03    -  1.00e+00 1.00e+00h  1
   8  2.0000000e+00 0.00e+00 1.48e-11  -8.6 1.93e-05    -  1.00e+00 1.00e+00h  1

Number of Iterations....: 8

                                   (scaled)                 (unscaled)
Objective...............:   1.9999999975506666e+00    1.9999999975506666e+00
Dual infeasibility......:   1.4797552072565168e-11    1.4797552072565168e-11
Constraint violation....:   0.0000000000000000e+00    0.0000000000000000e+00
Complementarity.........:   2.5918559269046650e-09    2.5918559269046650e-09
Overall NLP error.......:   2.5918559269046650e-09    2.5918559269046650e-09


Number of objective function evaluations             = 9
Number of objective gradient evaluations             = 9
Number of equality constraint evaluations            = 0
Number of inequality constraint evaluations          = 9
Number of equality constraint Jacobian evaluations   = 0
Number of inequality constraint Jacobian evaluations = 9
Number of Lagrangian Hessian evaluations             = 8
Total CPU secs in IPOPT (w/o function evaluations)   =      0.000
Total CPU secs in NLP function evaluations           =      0.000

EXIT: Optimal Solution Found.

************************ CUTEst statistics ************************


 Package used            :  IPOPT
 Problem                 :  GIGOMEZ3  
 # variables             =               3
 # constraints           =               3
 # objective functions   =        0.1900000E+02
 # objective gradients   =        0.1000000E+02
 # objective Hessians    =        0.9000000E+01
 # Hessian-vector prdct  =        0.0000000E+00
 # constraints functions =        0.2000000E+02
 # constraints gradients =        0.1100000E+02
 # constraints Hessians  =        0.9000000E+01
 Exit code               =               0
 Final f                 =   0.2000000E+01
 Set up time             =            0.00 seconds
 Solve time              =            0.02 seconds


******************************************************************

System Time =       0.0040000002 s.
